c A SAT instance generated from a 3-CNF formula that had 32 clauses and 8 variables
p cnf 8 32
5 -4 8 0
3 -1 8 0
-2 1 7 0
-7 5 2 0
-4 -6 -1 0
-2 3 -7 0
-2 -1 -8 0
-4 -6 -7 0
-7 -1 -5 0
-2 4 -5 0
-5 -6 4 0
-7 3 -4 0
2 1 7 0
-3 -1 5 0
-7 -1 -5 0
-1 4 -5 0
3 -6 1 0
-2 -1 7 0
2 -4 -8 0
8 4 6 0
-7 -1 6 0
-3 6 8 0
-8 -1 3 0
-6 -3 1 0
4 -6 3 0
-2 -5 4 0
5 6 2 0
-6 -1 -4 0
4 -8 6 0
-2 8 5 0
8 -7 5 0
5 -3 -1 0
